Version identifier: 22.1.0.0 | 2022-03-09 | 1a383f8ce
CPXPARAM_Threads                                 1
CPXPARAM_MIP_Strategy_VariableSelect             3
CPXPARAM_TimeLimit                               596.25666405599998
1 of 1 MIP starts provided solutions.
MIP start 'm1' defined initial solution with objective 281.0000.
Tried aggregator 1 time.
MIP Presolve eliminated 13 rows and 0 columns.
MIP Presolve modified 1 coefficients.
Reduced MIP has 2111 rows, 7500 columns, and 96488 nonzeros.
Reduced MIP has 7500 binaries, 0 generals, 0 SOSs, and 0 indicators.
Presolve time = 0.06 sec. (47.25 ticks)
Probing time = 0.01 sec. (6.60 ticks)
Tried aggregator 1 time.
Detecting symmetries...
Reduced MIP has 2111 rows, 7500 columns, and 96488 nonzeros.
Reduced MIP has 7500 binaries, 0 generals, 0 SOSs, and 0 indicators.
Presolve time = 0.07 sec. (54.10 ticks)
Probing time = 0.01 sec. (6.60 ticks)
Clique table members: 1194.
MIP emphasis: balance optimality and feasibility.
MIP search method: dynamic search.
Parallel mode: none, using 1 thread.
Root relaxation solution time = 1.65 sec. (1743.73 ticks)

        Nodes                                         Cuts/
   Node  Left     Objective  IInf  Best Integer    Best Bound    ItCnt     Gap

*     0+    0                          281.0000     7500.0000              --- 
      0     0      300.0000  1365      281.0000      300.0000     5472    6.76%
      0     0      300.0000   622      281.0000       Cuts: 5     9908    6.76%
      0     0      300.0000   971      281.0000       Cuts: 3    14005    6.76%
      0     0      300.0000   753      281.0000      Cuts: 16    18756    6.76%
      0     0      300.0000   488      281.0000       Cuts: 8    23653    6.76%
      0     0      300.0000   666      281.0000      Cuts: 10    28456    6.76%
Detecting symmetries...
Detecting symmetries...
      0     2      300.0000   253      281.0000      300.0000    28456    6.76%
Elapsed time = 125.77 sec. (137143.03 ticks, tree = 0.01 MB, solutions = 1)
      1     3      300.0000   828      281.0000      300.0000    37929    6.76%
      2     4      300.0000   925      281.0000      300.0000    44425    6.76%
      3     5      300.0000   816      281.0000      300.0000    50358    6.76%
      4     6      300.0000   879      281.0000      300.0000    55916    6.76%
      5     7      300.0000   725      281.0000      300.0000    60263    6.76%
      6     8      300.0000   773      281.0000      300.0000    61435    6.76%
      7     9      300.0000  1399      281.0000      300.0000    67863    6.76%
      8    10      300.0000   937      281.0000      300.0000    70176    6.76%
      9    11      300.0000   763      281.0000      300.0000    70192    6.76%
     10    12      300.0000  1326      281.0000      300.0000    78519    6.76%
Elapsed time = 146.37 sec. (159610.82 ticks, tree = 0.06 MB, solutions = 1)
     12    14      300.0000  1117      281.0000      300.0000    81239    6.76%
     15    17      300.0000  1349      281.0000      300.0000    97393    6.76%
     17    19      300.0000   707      281.0000      300.0000   105089    6.76%
     18    20      300.0000   869      281.0000      300.0000   106914    6.76%
     19    21      300.0000   991      281.0000      300.0000   111888    6.76%
     20    22      300.0000   838      281.0000      300.0000   111903    6.76%
     21    23      300.0000  1392      281.0000      300.0000   120441    6.76%
     24    26      300.0000   651      281.0000      300.0000   125297    6.76%
     25    27      300.0000   718      281.0000      300.0000   137822    6.76%
     27    29      300.0000   726      281.0000      300.0000   144214    6.76%
Elapsed time = 173.20 sec. (188717.52 ticks, tree = 0.11 MB, solutions = 1)
     28    30      300.0000   784      281.0000      300.0000   150862    6.76%
     30    32      300.0000   610      281.0000      300.0000   154704    6.76%
     31    33      300.0000   648      281.0000      300.0000   156428    6.76%
     33    35      300.0000   823      281.0000      300.0000   189534    6.76%
     35    37      300.0000   523      281.0000      300.0000   196672    6.76%
     37    39      300.0000   408      281.0000      300.0000   202381    6.76%
     38    40      300.0000   426      281.0000      300.0000   212068    6.76%
     40    42      299.9909   885      281.0000      300.0000   217881    6.76%
     41    43      300.0000   530      281.0000      300.0000   228280    6.76%
     42    44      300.0000   546      281.0000      300.0000   229677    6.76%
Elapsed time = 209.88 sec. (226259.16 ticks, tree = 0.19 MB, solutions = 1)
     43    45      299.9120   836      281.0000      300.0000   236974    6.76%
     44    46      299.8118   957      281.0000      300.0000   239786    6.76%
     45    47      300.0000   465      281.0000      300.0000   250756    6.76%
     46    48      299.8938   916      281.0000      300.0000   261905    6.76%
     48    50      300.0000   382      281.0000      300.0000   267207    6.76%
     49    51      299.9484   895      281.0000      300.0000   288018    6.76%
     50    52      299.9727   858      281.0000      300.0000   301377    6.76%
     51    53      300.0000   440      281.0000      300.0000   309387    6.76%
     52    54      299.8118   916      281.0000      300.0000   318627    6.76%
     53    55      300.0000   377      281.0000      300.0000   328340    6.76%
Elapsed time = 244.56 sec. (263290.83 ticks, tree = 0.26 MB, solutions = 1)
     54    56      300.0000   352      281.0000      300.0000   333012    6.76%
     55    57      300.0000   353      281.0000      300.0000   337370    6.76%
     56    58      299.9302   886      281.0000      300.0000   353644    6.76%
     57    59      299.9757   899      281.0000      300.0000   369883    6.76%
     58    60      300.0000   483      281.0000      300.0000   379450    6.76%
     59    61      300.0000   376      281.0000      300.0000   388793    6.76%
     60    62      300.0000   438      281.0000      300.0000   394664    6.76%
     61    63      300.0000   406      281.0000      300.0000   400418    6.76%
     62    64      299.9655   808      281.0000      300.0000   415586    6.76%
     63    65      300.0000   444      281.0000      300.0000   420617    6.76%
Elapsed time = 278.35 sec. (298451.92 ticks, tree = 0.33 MB, solutions = 1)
     64    66      299.7968   888      281.0000      300.0000   436119    6.76%
     65    67      300.0000   410      281.0000      300.0000   446094    6.76%
     66    68      300.0000   428      281.0000      300.0000   450902    6.76%
     67    69      299.8773   825      281.0000      300.0000   461717    6.76%
     69    71      299.9663   684      281.0000      300.0000   477251    6.76%
     70    72      300.0000   365      281.0000      300.0000   481668    6.76%
     72    74      300.0000   274      281.0000      300.0000   486104    6.76%
     74    76      300.0000   228      281.0000      300.0000   489945    6.76%
     75    77      299.9733   561      281.0000      300.0000   500066    6.76%
     76    78      300.0000   227      281.0000      300.0000   503978    6.76%
Elapsed time = 304.21 sec. (325445.88 ticks, tree = 0.40 MB, solutions = 1)
     77    79      300.0000   314      281.0000      300.0000   511505    6.76%
     79    81      300.0000   239      281.0000      300.0000   517194    6.76%
     81    83      300.0000   265      281.0000      300.0000   521850    6.76%
     82    84      300.0000   233      281.0000      300.0000   527109    6.76%
     83    85      299.6438   714      281.0000      300.0000   555028    6.76%
     85    87      299.9746   500      281.0000      300.0000   567931    6.76%
     86    88      299.9198   444      281.0000      300.0000   579870    6.76%
     87    89      299.9493   527      281.0000      300.0000   584805    6.76%
     89    91      299.9467   556      281.0000      300.0000   590703    6.76%
     90    92      298.9500   743      281.0000      300.0000   595848    6.76%
Elapsed time = 337.07 sec. (360404.09 ticks, tree = 0.51 MB, solutions = 1)
     93    95      299.9467   518      281.0000      300.0000   596268    6.76%
     95    97      298.9500   598      281.0000      300.0000   601292    6.76%
     97    99      298.9500   767      281.0000      300.0000   607322    6.76%
    101   103      298.9500   707      281.0000      300.0000   612735    6.76%
    105   106      298.9500   587      281.0000      300.0000   618927    6.76%
    109   110      298.9500   666      281.0000      300.0000   625399    6.76%
    112   113      298.9500   628      281.0000      300.0000   631290    6.76%
    114   115      298.9500   552      281.0000      300.0000   638715    6.76%
    117   118      298.8121   739      281.0000      300.0000   650625    6.76%
    121   122      298.9500   690      281.0000      300.0000   656370    6.76%
Elapsed time = 363.84 sec. (388234.69 ticks, tree = 1.09 MB, solutions = 1)
    123   124      298.9500   628      281.0000      300.0000   660391    6.76%
    126   127      299.0000   476      281.0000      300.0000   663576    6.76%
    128   129      299.0000   541      281.0000      300.0000   673219    6.76%
    130   131      299.0000   394      281.0000      300.0000   680605    6.76%
    132   133      299.0000   429      281.0000      300.0000   689473    6.76%
    134   135      299.0000   471      281.0000      300.0000   696417    6.76%
    136   137      299.0000   554      281.0000      300.0000   701366    6.76%
    138   139      299.0000   547      281.0000      300.0000   707013    6.76%
    140   141      299.0000   544      281.0000      300.0000   712200    6.76%
    142   143      299.0000   577      281.0000      300.0000   717786    6.76%
Elapsed time = 386.42 sec. (412005.98 ticks, tree = 1.50 MB, solutions = 1)
    144   145      299.0000   507      281.0000      300.0000   726632    6.76%
    146   147      299.0000   455      281.0000      300.0000   733550    6.76%
    149   150      299.0000   515      281.0000      300.0000   736798    6.76%
    152   153      299.0000   370      281.0000      300.0000   741441    6.76%
    154   155      299.0000   514      281.0000      300.0000   745664    6.76%
    156   157      299.0000   625      281.0000      300.0000   750308    6.76%
    160   161      299.0000   474      281.0000      300.0000   754919    6.76%
    162   163      299.0000   417      281.0000      300.0000   758713    6.76%
    164   165      299.0000   572      281.0000      300.0000   764882    6.76%
    168   169      299.0000   558      281.0000      300.0000   774324    6.76%
Elapsed time = 408.62 sec. (435389.86 ticks, tree = 2.01 MB, solutions = 1)
    172   173      298.9500   636      281.0000      300.0000   784388    6.76%
    176   177      298.9500   675      281.0000      300.0000   794595    6.76%
    180   181      299.9437   464      281.0000      300.0000   800113    6.76%
    186   187      298.9500   697      281.0000      300.0000   810047    6.76%
    190   191      298.9500   706      281.0000      300.0000   818666    6.76%
    195   196      298.9500   670      281.0000      300.0000   828328    6.76%
    201   202      298.9500   681      281.0000      300.0000   836249    6.76%
    205   206      298.9500   699      281.0000      300.0000   849333    6.76%
    211   212      299.6232   548      281.0000      300.0000   860422    6.76%
    214   215      298.9500   668      281.0000      300.0000   876334    6.76%
Elapsed time = 459.92 sec. (488512.67 ticks, tree = 2.90 MB, solutions = 1)
    220   221      299.0000   550      281.0000      300.0000   885094    6.76%
    224   225      299.0000   546      281.0000      300.0000   898230    6.76%
    229   230      299.0000   506      281.0000      300.0000   912879    6.76%
    234   235      298.9375   592      281.0000      300.0000   923264    6.76%
    239   240      298.9375   493      281.0000      300.0000   933921    6.76%
    244   245      298.9000   521      281.0000      300.0000   951808    6.76%
    249   250      299.0000   592      281.0000      300.0000   959756    6.76%
    252   253      299.9009   459      281.0000      300.0000   969131    6.76%
    258   259      298.8750   544      281.0000      300.0000   976305    6.76%
    260   261      299.9003   455      281.0000      300.0000   976313    6.76%
Elapsed time = 505.42 sec. (535665.26 ticks, tree = 3.78 MB, solutions = 1)
    263   263      298.8750   486      281.0000      300.0000   989837    6.76%
    268   267      295.5000   652      281.0000      300.0000  1008738    6.76%
    271   270      299.8960   477      281.0000      300.0000  1017887    6.76%
    274   273      298.8333   463      281.0000      300.0000  1029540    6.76%
    279   277      297.5000   512      281.0000      300.0000  1054544    6.76%
    280   278      299.8895   508      281.0000      300.0000  1054546    6.76%
    284   282      299.8887   510      281.0000      300.0000  1063088    6.76%
    288   286      298.8333   663      281.0000      300.0000  1075186    6.76%
    294   292      298.8333   627      281.0000      300.0000  1082070    6.76%
    299   297      298.8333   657      281.0000      300.0000  1092903    6.76%
Elapsed time = 560.77 sec. (592246.51 ticks, tree = 4.50 MB, solutions = 1)
Starting limited solution polishing.
    300   298      299.8887   492      281.0000      300.0000  1092905    6.76%
    307   305      298.8333   604      281.0000      300.0000  1105970    6.76%
    314   312      298.7247   601      281.0000      300.0000  1118967    6.76%
    321   319      299.8811   460      281.0000      300.0000  1125388    6.76%
    324   322      299.8777   651      281.0000      300.0000  1136346    6.76%
    327   325      298.8333   592      281.0000      300.0000  1151734    6.76%
    331   329      299.8725   613      281.0000      300.0000  1158767    6.76%

Clique cuts applied:  4
Zero-half cuts applied:  17

Root node processing (before b&c):
  Real time             =  125.67 sec. (137042.72 ticks)
Sequential b&c:
  Real time             =  470.59 sec. (491647.62 ticks)
                          ------------
Total (root+branch&cut) =  596.26 sec. (628690.34 ticks)
Primal:	281
Dual:	300
Status:	Feasible
Time:	596.26
Sequence:
	20
	10
	12
	6
	8
	14
	5
	12
	9
	5
	14
	10
	12
	6
	18
	4
	18
	5
	17
	5
	15
	5
	12
	10
	18
	0
	20
	5
	12
	10
	18
	0
	20
	5
	17
	5
	12
	9
	12
	5
	14
	8
	15
	5
	12
	10
	18
	0
	20
	5
	12
	8
	20
	1
	13
	8
	5
	14
	5
	16
	5
	13
	8
	12
	5
	14
	8
	19
	1
	18
	10
	12
	5
	17
	6
	5
	12
	10
	20
	0
	18
	5
	17
	5
	20
	3
	18
	5
	4
	18
	6
	17
	5
	5
	16
	7
	20
	2
	18
	5
	15
	4
	18
	5
	12
	9
	14
	5
	10
	12
	5
	10
	12
	7
	16
	5
	5
	17
	7
	12
	5
	16
	5
	18
	3
	20
	1
	18
	8
	12
	7
	8
	12
	5
	8
	12
	7
	12
	5
	20
	2
	20
	5
	12
	9
	5
	12
	10
	20
	0
	18
	5
	12
	8
	18
	1
	18
	8
	14
	6
	14
	8
	5
	12
	8
	18
	1
	20
	9
	12
	5
	18
	4
	19
	5
	14
	8
	20
	0
	18
	8
	12
	5
	20
	0
	20
	8
	12
	5
	20
	3
	18
	5
	17
	5
	12
	10
	13
	5
	18
	4
	18
	5
	16
	7
	18
	4
	18
	5
	0
	20
	5
	14
	5
	8
	14
	5
	13
	10
	18
	1
	18
	9
	14
	5
	5
	17
	6
	20
	2
	18
	5
	16
	7
	20
	2
	18
	5
	17
	5
	20
	2
	18
	7
	12
	5
	20
	2
	20
	5
	16
	7
	18
	4
	18
	5
	14
	8
	12
	6
	16
	5
	20
	2
	20
	5
	13
	8
	18
	1
	18
	9
	14
	5
	8
	14
	5
	5
	12
	11
	20
